NAME : Bred-5
TYPE : CVRP
DIMENSION : 101
EDGE_WEIGHT_TYPE : EUC_2D 
CAPACITY : 200
NODE_COORD_SECTION
1 50 102
2 44 48
3 46 45
4 50 44
5 54 45
6 57 48
7 57 52
8 54 56
9 50 57
10 46 56
11 44 52
12 43 45
13 48 42
14 53 42
15 57 45
16 59 50
17 57 55
18 53 59
19 48 59
20 43 55
21 42 50
22 40 47
23 44 42
24 50 40
25 56 42
26 60 47
27 60 53
28 56 59
29 50 61
30 44 59
31 40 53
32 40 43
33 46 38
34 54 38
35 60 43
36 63 50
37 61 57
38 54 62
39 47 62
40 40 58
41 38 50
42 36 46
43 42 38
44 50 36
45 59 38
46 64 46
47 64 55
48 59 62
49 50 65
50 42 62
51 36 55
52 22 30
53 39 17
54 60 17
55 78 30
56 85 50
57 79 70
58 61 83
59 40 83
60 22 71
61 16 50
62 15 39
63 29 21
64 50 14
65 72 21
66 85 39
67 85 61
68 72 80
69 50 87
70 29 80
71 15 61
72 19 28
73 38 14
74 62 13
75 81 27
76 89 50
77 82 72
78 63 87
79 39 87
80 19 73
81 12 51
82 12 38
83 26 17
84 50 10
85 74 17
86 89 38
87 89 63
88 74 83
89 50 91
90 26 83
91 12 63
92 15 26
93 37 10
94 63 9
95 84 25
96 93 50
97 85 75
98 64 91
99 38 91
100 16 76
101 8 51
DEMAND_SECTION
1 0
2 10
3 10
4 10
5 10
6 10
7 10
8 10
9 10
10 10
11 10
12 10
13 10
14 10
15 10
16 10
17 10
18 10
19 10
20 10
21 10
22 10
23 10
24 10
25 10
26 10
27 10
28 10
29 10
30 10
31 10
32 10
33 10
34 10
35 10
36 10
37 10
38 10
39 10
40 10
41 10
42 10
43 10
44 10
45 10
46 10
47 10
48 10
49 10
50 10
51 10
52 10
53 10
54 10
55 10
56 10
57 10
58 10
59 10
60 10
61 10
62 10
63 10
64 10
65 10
66 10
67 10
68 10
69 10
70 10
71 10
72 10
73 10
74 10
75 10
76 10
77 10
78 10
79 10
80 10
81 10
82 10
83 10
84 10
85 10
86 10
87 10
88 10
89 10
90 10
91 10
92 10
93 10
94 10
95 10
96 10
97 10
98 10
99 10
100 10
101 10
DEPOT_SECTION
1 
-1
EOF
